data/CVRPLIB/Vrp-Set-XML100/instances/XML100_1316_07.vrp
NAME : XML100_1316_07
COMMENT : Generated by Queiroga, Sadykov, Uchoa, and Vidal (2021)
TYPE : CVRP
DIMENSION : 101
EDGE_WEIGHT_TYPE : EUC_2D
CAPACITY : 42
NODE_COORD_SECTION
1    801  751 
2    778  938 
3    933  647 
4    418  436 
5    494  482 
6    76   150 
7    723  126 
8    247  747 
9    60   361 
10   358  213 
11   420  31  
12   715  812 
13   465  612 
14   463  439 
15   391  411 
16   577  529 
17   656  974 
18   454  544 
19   862  483 
20   635  841 
21   952  818 
22   934  349 
23   958  599 
24   785  479 
25   473  75  
26   542  336 
27   348  953 
28   694  286 
29   412  5   
30   497  787 
31   343  331 
32   754  328 
33   353  128 
34   525  832 
35   578  764 
36   464  452 
37   797  895 
38   719  257 
39   355  136 
40   611  336 
41   529  335 
42   438  115 
43   966  946 
44   18   972 
45   965  427 
46   425  757 
47   850  411 
48   772  319 
49   588  52  
50   173  685 
51   539  844 
52   632  835 
53   512  965 
54   418  4   
55   551  354 
56   661  726 
57   646  252 
58   381  116 
59   529  222 
60   143  220 
61   859  519 
62   510  850 
63   416  893 
64   278  977 
65   513  852 
66   100  806 
67   140  15  
68   130  383 
69   525  431 
70   307  571 
71   582  387 
72   139  655 
73   900  928 
74   424  462 
75   371  914 
76   405  284 
77   680  501 
78   792  644 
79   998  305 
80   361  545 
81   62   956 
82   464  813 
83   684  356 
84   956  160 
85   335  79  
86   661  879 
87   93   403 
88   587  255 
89   407  20  
90   368  207 
91   820  872 
92   712  337 
93   874  982 
94   959  106 
95   445  102 
96   755  787 
97   369  991 
98   738  416 
99   452  24  
100  223  254 
101  693  679 
DEMAND_SECTION
1    0   
2    1   
3    1   
4    1   
5    1   
6    1   
7    1   
8    1   
9    1   
10   1   
11   1   
12   1   
13   1   
14   1   
15   1   
16   1   
17   1   
18   1   
19   1   
20   1   
21   1   
22   1   
23   1   
24   1   
25   1   
26   1   
27   1   
28   1   
29   1   
30   1   
31   1   
32   1   
33   1   
34   1   
35   1   
36   1   
37   1   
38   1   
39   1   
40   1   
41   1   
42   1   
43   1   
44   1   
45   1   
46   1   
47   1   
48   1   
49   1   
50   1   
51   1   
52   1   
53   1   
54   1   
55   1   
56   1   
57   1   
58   1   
59   1   
60   1   
61   1   
62   1   
63   1   
64   1   
65   1   
66   1   
67   1   
68   1   
69   1   
70   1   
71   1   
72   1   
73   1   
74   1   
75   1   
76   1   
77   1   
78   1   
79   1   
80   1   
81   1   
82   1   
83   1   
84   1   
85   1   
86   1   
87   1   
88   1   
89   1   
90   1   
91   1   
92   1   
93   1   
94   1   
95   1   
96   1   
97   1   
98   1   
99   1   
100  1   
101  1   
DEPOT_SECTION
1
-1
EOF
