data/CVRPLIB/Vrp-Set-XML100/solutions/XML100_1316_07.sol
Route #1: 100 76 15 4 35 13 73 3 14 30 75 89 9 99 67 86 8 59 5 66 84 32 38 57 41 94 10 88 28 53 98 24 48 6 93 83 78 21 44 22 2
Route #2: 20 42 72 92 90 36 1 16 52 64 61 33 50 51 19 85 11 95
Route #3: 55 34 29 45 81 62 74 26 96 63 80 43 65 71 49 7 69 79 12 17 68 70 39 54 25 40 58 87 56 27 37 47 31 91 82 97 23 46 18 60 77
Cost 8444
